(benchmark SmtAuflia_2008_To_12_To_05_15h56m05s :status unknown
 :logic AUFLIA
 :extrapreds ((is_int Int))
 :extrapreds ((Func_p_UIP Int))
 :extrapreds ((Func_q_UIP Int))
 :formula (not (implies true (implies (and (and (forall (?LogVar_mv0_0_int Int) (implies (is_int ?LogVar_mv0_0_int) (implies (Func_p_UIP ?LogVar_mv0_0_int) (Func_q_UIP ?LogVar_mv0_0_int)))) (Func_p_UIP 0)) (Func_p_UIP 1)) (Func_q_UIP 12))))
)
